0 36 42
1 25 44
2 46 45
3 35 41
4 35 41
5 36 40
6 29 37
7 32 38
8 35 36
9 30 34
10 32 36
11 23 34
12 24 34
13 22 32
14 29 29
15 21 29
16 21 28
17 21 26
18 11 25
19 22 22
20 23 23
21 18 22
22 20 21
23 18 22
24 10 20
25 11 20
26 15 17
27 6 15
28 14 13
29 7 11
30 7 13
31 8 14
32 10 15
33 9 13
34 9 13
35 8 12
36 6 11
37 2 12
38 5 9
39 8 8
40 8 7
41 4 3
42 8 7
43 5 8
44 7 6
45 6 6
46 1 6
47 1 5
48 3 3
49 1 1

